(declare-fun j () Int)

(assert (forall ((N Int) (i_inv Int))
  (=>
    (and
      (<= 0 i_inv)
      (<= (+ i_inv 1) (- N 1))
      (not (or (exists ((j_0 Int)(j_1 Int)) (and (or (and (= (- N i_inv) (- (- N 1) (+ i_inv 1))) (= (- j_0 1) j_1)) (and (= j_0 (- j_1 1)) (= (- (- N 1) i_inv) (- (- N 1) (+ i_inv 1)))) (and (= (- (- N 1) i_inv) (- (- N 1) (+ i_inv 1))) (= j_0 j_1))) (<= j_0 (- N 1)) (<= 1 j_1) (<= (- N (+ i_inv 1)) j_1) (<= j_1 (- N 1)) (<= 1 j_0) (<= (- j_0 1) (- (- N 1) i_inv)) (<= (- N i_inv) j_0) (< (- N i_inv) N))) (exists ((j_0 Int)(j_1 Int)) (and (< (- N (+ i_inv 1)) N) (<= j_0 (- N 1)) (<= (- N (+ i_inv 1)) j_1) (<= j_1 (- N 1)) (<= 1 j_0) (<= (- j_0 1) (- (- N 1) i_inv)) (<= (- N i_inv) j_0) (or (and (= (- N i_inv) (- (- N 1) (+ i_inv 1))) (= (- j_0 1) j_1)) (and (= (- (- N 1) i_inv) (- N (+ i_inv 1))) (= j_0 j_1)) (and (= (- (- N 1) i_inv) (- (- N 1) (+ i_inv 1))) (= j_0 j_1))) (< (- N i_inv) N))) (exists ((j_0 Int)(j_1 Int)) (and (< (- N (+ i_inv 1)) N) (<= j_0 (- N 1)) (<= 1 j_1) (<= (- N (+ i_inv 1)) j_1) (<= j_1 (- N 1)) (<= 1 j_0) (<= (- j_0 1) (- (- N 1) i_inv)) (<= (- N i_inv) j_0) (< (- (- N 1) (+ i_inv 1)) (- j_1 1)) (< (- N i_inv) N) (or (and (= j_0 (- j_1 1)) (= (- (- N 1) i_inv) (- N (+ i_inv 1)))) (and (= (- N i_inv) (- (- N 1) (+ i_inv 1))) (= (- j_0 1) j_1)) (and (= (- (- N 1) i_inv) (- (- N 1) (+ i_inv 1))) (= j_0 j_1))))) (exists ((j_0 Int)(k_1 Int)(j_1 Int)) (and (<= j_0 (- N 1)) (<= (- N (+ i_inv 1)) j_1) (<= j_1 (- N 1)) (<= 1 j_0) (<= (- N i_inv) j_0) (<= (- N (+ i_inv 1)) k_1) (<= k_1 (- j 1)) (or (and (= j_0 j_1) (= (- (- N 1) i_inv) (+ k_1 1))) (and (= (- (- N 1) i_inv) (- (- N 1) (+ i_inv 1))) (= (- j_0 1) j_1)) (and (= j_0 k_1) (= (- (- N 1) i_inv) (- (- N 1) (+ i_inv 1)))) (and (= (- (- N 1) i_inv) (- (- N 1) (+ i_inv 1))) (= j_0 j_1))))) (exists ((j_0 Int)(j_1 Int)) (and (< (- N (+ i_inv 1)) N) (<= j_0 (- N 1)) (<= 1 j_1) (<= (- N (+ i_inv 1)) j_1) (<= j_1 (- N 1)) (<= 1 j_0) (<= (- j_0 1) (- (- N 1) i_inv)) (<= (- N i_inv) j_0) (< (- N i_inv) N) (or (and (= j_0 (- j_1 1)) (= (- (- N 1) i_inv) (- N (+ i_inv 1)))) (and (= (- N i_inv) (- (- N 1) (+ i_inv 1))) (= (- j_0 1) j_1)) (and (= (- (- N 1) i_inv) (- (- N 1) (+ i_inv 1))) (= j_0 j_1))) (<= (- j_1 1) (- (- N 1) (+ i_inv 1))))) (exists ((j_0 Int)(k_0 Int)(j_1 Int)) (and (<= j_0 (- N 1)) (<= 1 j_1) (<= (- N (+ i_inv 1)) j_1) (<= j_1 (- N 1)) (<= (- N i_inv) j_0) (<= k_0 (- j 1)) (or (and (= j_0 j_1) (= (+ k_0 1) (- (- N 1) (+ i_inv 1)))) (and (= j_0 (- j_1 1)) (= (- (- N 1) i_inv) (- (- N 1) (+ i_inv 1)))) (and (= (- (- N 1) i_inv) (- (- N 1) (+ i_inv 1))) (= k_0 j_1)) (and (= (- (- N 1) i_inv) (- (- N 1) (+ i_inv 1))) (= j_0 j_1))) (<= (- N i_inv) k_0))) (exists ((j_0 Int)(k_0 Int)(j_1 Int)) (and (< (- N (+ i_inv 1)) N) (or (and (= j_0 j_1) (= (+ k_0 1) (- (- N 1) (+ i_inv 1)))) (and (= (- (- N 1) i_inv) (- N (+ i_inv 1))) (= j_0 j_1)) (and (= (- (- N 1) i_inv) (- (- N 1) (+ i_inv 1))) (= k_0 j_1)) (and (= (- (- N 1) i_inv) (- (- N 1) (+ i_inv 1))) (= j_0 j_1))) (<= j_0 (- N 1)) (<= (- N (+ i_inv 1)) j_1) (<= j_1 (- N 1)) (<= (- N i_inv) j_0) (<= k_0 (- j 1)) (<= (- N i_inv) k_0))) (exists ((j_0 Int)(k_0 Int)(j_1 Int)) (and (< (- N (+ i_inv 1)) N) (<= j_0 (- N 1)) (<= 1 j_1) (or (and (= j_0 (- j_1 1)) (= (- (- N 1) i_inv) (- N (+ i_inv 1)))) (and (= j_0 j_1) (= (+ k_0 1) (- (- N 1) (+ i_inv 1)))) (and (= (- (- N 1) i_inv) (- (- N 1) (+ i_inv 1))) (= k_0 j_1)) (and (= (- (- N 1) i_inv) (- (- N 1) (+ i_inv 1))) (= j_0 j_1))) (<= (- N (+ i_inv 1)) j_1) (<= j_1 (- N 1)) (< (- (- N 1) (+ i_inv 1)) (- j_1 1)) (<= (- N i_inv) j_0) (<= k_0 (- j 1)) (<= (- N i_inv) k_0))) (exists ((j_0 Int)(k_0 Int)(j_1 Int)) (and (< (- N (+ i_inv 1)) N) (<= j_0 (- N 1)) (<= 1 j_1) (or (and (= j_0 (- j_1 1)) (= (- (- N 1) i_inv) (- N (+ i_inv 1)))) (and (= j_0 j_1) (= (+ k_0 1) (- (- N 1) (+ i_inv 1)))) (and (= (- (- N 1) i_inv) (- (- N 1) (+ i_inv 1))) (= k_0 j_1)) (and (= (- (- N 1) i_inv) (- (- N 1) (+ i_inv 1))) (= j_0 j_1))) (<= (- N (+ i_inv 1)) j_1) (<= j_1 (- N 1)) (<= (- N i_inv) j_0) (<= k_0 (- j 1)) (<= (- j_1 1) (- (- N 1) (+ i_inv 1))) (<= (- N i_inv) k_0))) (exists ((j_0 Int)(k_1 Int)(j_1 Int)) (and (<= j_0 (- N 1)) (< (- (- N 1) i_inv) (- j_0 1)) (<= (- N (+ i_inv 1)) j_1) (<= 1 j_0) (<= j_1 (- N 1)) (<= (- N i_inv) j_0) (< (- N i_inv) N) (<= (- N (+ i_inv 1)) k_1) (<= k_1 (- j 1)) (or (and (= (- N i_inv) (- (- N 1) (+ i_inv 1))) (= (- j_0 1) j_1)) (and (= j_0 j_1) (= (- (- N 1) i_inv) (+ k_1 1))) (and (= j_0 k_1) (= (- (- N 1) i_inv) (- (- N 1) (+ i_inv 1)))) (and (= (- (- N 1) i_inv) (- (- N 1) (+ i_inv 1))) (= j_0 j_1))))) (exists ((j_0 Int)(k_1 Int)(k_0 Int)(j_1 Int)) (and (<= j_0 (- N 1)) (<= (- N (+ i_inv 1)) j_1) (<= j_1 (- N 1)) (<= (- N i_inv) j_0) (or (and (= j_0 j_1) (= (+ k_0 1) (- (- N 1) (+ i_inv 1)))) (and (= j_0 j_1) (= (- (- N 1) i_inv) (+ k_1 1))) (and (= j_0 k_1) (= (- (- N 1) i_inv) (- (- N 1) (+ i_inv 1)))) (and (= (- (- N 1) i_inv) (- (- N 1) (+ i_inv 1))) (= k_0 j_1)) (and (= (- (- N 1) i_inv) (- (- N 1) (+ i_inv 1))) (= j_0 j_1))) (<= k_0 (- j 1)) (<= (- N (+ i_inv 1)) k_1) (<= k_1 (- j 1)) (<= (- N i_inv) k_0))) (exists ((j_0 Int)(j_1 Int)) (and (<= j_0 (- N 1)) (or (and (= (- (- N 1) i_inv) (- (- N 1) (+ i_inv 1))) (= (- j_0 1) j_1)) (and (= j_0 (- j_1 1)) (= (- (- N 1) i_inv) (- (- N 1) (+ i_inv 1)))) (and (= (- (- N 1) i_inv) (- (- N 1) (+ i_inv 1))) (= j_0 j_1))) (<= 1 j_1) (<= (- N (+ i_inv 1)) j_1) (<= j_1 (- N 1)) (<= 1 j_0) (<= (- N i_inv) j_0))) (exists ((j_0 Int)(j_1 Int)) (and (< (- N (+ i_inv 1)) N) (<= j_0 (- N 1)) (<= (- N (+ i_inv 1)) j_1) (<= j_1 (- N 1)) (<= 1 j_0) (<= (- N i_inv) j_0) (or (and (= (- (- N 1) i_inv) (- (- N 1) (+ i_inv 1))) (= (- j_0 1) j_1)) (and (= (- (- N 1) i_inv) (- N (+ i_inv 1))) (= j_0 j_1)) (and (= (- (- N 1) i_inv) (- (- N 1) (+ i_inv 1))) (= j_0 j_1))))) (exists ((j_0 Int)(j_1 Int)) (and (< (- N (+ i_inv 1)) N) (or (and (= j_0 (- j_1 1)) (= (- (- N 1) i_inv) (- N (+ i_inv 1)))) (and (= (- (- N 1) i_inv) (- (- N 1) (+ i_inv 1))) (= (- j_0 1) j_1)) (and (= (- (- N 1) i_inv) (- (- N 1) (+ i_inv 1))) (= j_0 j_1))) (<= j_0 (- N 1)) (<= 1 j_1) (<= (- N (+ i_inv 1)) j_1) (<= j_1 (- N 1)) (<= 1 j_0) (< (- (- N 1) (+ i_inv 1)) (- j_1 1)) (<= (- N i_inv) j_0))) (exists ((j_0 Int)(j_1 Int)) (and (< (- N (+ i_inv 1)) N) (or (and (= j_0 (- j_1 1)) (= (- (- N 1) i_inv) (- N (+ i_inv 1)))) (and (= (- (- N 1) i_inv) (- (- N 1) (+ i_inv 1))) (= (- j_0 1) j_1)) (and (= (- (- N 1) i_inv) (- (- N 1) (+ i_inv 1))) (= j_0 j_1))) (<= j_0 (- N 1)) (<= 1 j_1) (<= (- N (+ i_inv 1)) j_1) (<= j_1 (- N 1)) (<= 1 j_0) (<= (- N i_inv) j_0) (<= (- j_1 1) (- (- N 1) (+ i_inv 1))))) (exists ((j_0 Int)(j_1 Int)) (and (or (and (= (- N i_inv) (- (- N 1) (+ i_inv 1))) (= j_0 j_1)) (and (= j_0 (- j_1 1)) (= (- (- N 1) i_inv) (- (- N 1) (+ i_inv 1)))) (and (= (- (- N 1) i_inv) (- (- N 1) (+ i_inv 1))) (= j_0 j_1))) (<= j_0 (- N 1)) (<= 1 j_1) (<= (- N (+ i_inv 1)) j_1) (<= j_1 (- N 1)) (<= (- N i_inv) j_0) (< (- N i_inv) N))) (exists ((j_0 Int)(j_1 Int)) (and (< (- N (+ i_inv 1)) N) (<= j_0 (- N 1)) (<= (- N (+ i_inv 1)) j_1) (<= j_1 (- N 1)) (or (and (= (- N i_inv) (- (- N 1) (+ i_inv 1))) (= j_0 j_1)) (and (= (- (- N 1) i_inv) (- N (+ i_inv 1))) (= j_0 j_1)) (and (= (- (- N 1) i_inv) (- (- N 1) (+ i_inv 1))) (= j_0 j_1))) (<= (- N i_inv) j_0) (< (- N i_inv) N))) (exists ((j_0 Int)(k_1 Int)(j_1 Int)) (and (<= j_0 (- N 1)) (<= (- N (+ i_inv 1)) j_1) (<= j_1 (- N 1)) (<= 1 j_0) (<= (- j_0 1) (- (- N 1) i_inv)) (<= (- N i_inv) j_0) (< (- N i_inv) N) (<= (- N (+ i_inv 1)) k_1) (<= k_1 (- j 1)) (or (and (= (- N i_inv) (- (- N 1) (+ i_inv 1))) (= (- j_0 1) j_1)) (and (= j_0 j_1) (= (- (- N 1) i_inv) (+ k_1 1))) (and (= j_0 k_1) (= (- (- N 1) i_inv) (- (- N 1) (+ i_inv 1)))) (and (= (- (- N 1) i_inv) (- (- N 1) (+ i_inv 1))) (= j_0 j_1))))) (exists ((j_0 Int)(j_1 Int)) (and (< (- N (+ i_inv 1)) N) (<= j_0 (- N 1)) (<= 1 j_1) (<= (- N (+ i_inv 1)) j_1) (<= j_1 (- N 1)) (< (- (- N 1) (+ i_inv 1)) (- j_1 1)) (<= (- N i_inv) j_0) (< (- N i_inv) N) (or (and (= j_0 (- j_1 1)) (= (- (- N 1) i_inv) (- N (+ i_inv 1)))) (and (= (- N i_inv) (- (- N 1) (+ i_inv 1))) (= j_0 j_1)) (and (= (- (- N 1) i_inv) (- (- N 1) (+ i_inv 1))) (= j_0 j_1))))) (exists ((j_0 Int)(j_1 Int)) (and (< (- N (+ i_inv 1)) N) (<= j_0 (- N 1)) (<= 1 j_1) (<= (- N (+ i_inv 1)) j_1) (<= j_1 (- N 1)) (<= (- N i_inv) j_0) (< (- N i_inv) N) (or (and (= j_0 (- j_1 1)) (= (- (- N 1) i_inv) (- N (+ i_inv 1)))) (and (= (- N i_inv) (- (- N 1) (+ i_inv 1))) (= j_0 j_1)) (and (= (- (- N 1) i_inv) (- (- N 1) (+ i_inv 1))) (= j_0 j_1))) (<= (- j_1 1) (- (- N 1) (+ i_inv 1))))) (exists ((j_0 Int)(k_1 Int)(j_1 Int)) (and (<= j_0 (- N 1)) (<= (- N (+ i_inv 1)) j_1) (<= j_1 (- N 1)) (<= (- N i_inv) j_0) (< (- N i_inv) N) (<= (- N (+ i_inv 1)) k_1) (<= k_1 (- j 1)) (or (and (= j_0 j_1) (= (- (- N 1) i_inv) (+ k_1 1))) (and (= j_0 k_1) (= (- (- N 1) i_inv) (- (- N 1) (+ i_inv 1)))) (and (= (- (- N 1) i_inv) (- (- N 1) (+ i_inv 1))) (= j_0 j_1)) (and (= (- N i_inv) (- (- N 1) (+ i_inv 1))) (= j_0 j_1))))) (exists ((j_0 Int)(j_1 Int)) (and (or (and (= (- N i_inv) (- (- N 1) (+ i_inv 1))) (= (- j_0 1) j_1)) (and (= j_0 (- j_1 1)) (= (- (- N 1) i_inv) (- (- N 1) (+ i_inv 1)))) (and (= (- (- N 1) i_inv) (- (- N 1) (+ i_inv 1))) (= j_0 j_1))) (<= j_0 (- N 1)) (< (- (- N 1) i_inv) (- j_0 1)) (<= 1 j_1) (<= (- N (+ i_inv 1)) j_1) (<= j_1 (- N 1)) (<= 1 j_0) (<= (- N i_inv) j_0) (< (- N i_inv) N))) (exists ((j_0 Int)(j_1 Int)) (and (< (- N (+ i_inv 1)) N) (<= j_0 (- N 1)) (< (- (- N 1) i_inv) (- j_0 1)) (<= (- N (+ i_inv 1)) j_1) (<= j_1 (- N 1)) (<= 1 j_0) (or (and (= (- N i_inv) (- (- N 1) (+ i_inv 1))) (= (- j_0 1) j_1)) (and (= (- (- N 1) i_inv) (- N (+ i_inv 1))) (= j_0 j_1)) (and (= (- (- N 1) i_inv) (- (- N 1) (+ i_inv 1))) (= j_0 j_1))) (<= (- N i_inv) j_0) (< (- N i_inv) N))) (exists ((j_0 Int)(j_1 Int)) (and (< (- N (+ i_inv 1)) N) (<= j_0 (- N 1)) (< (- (- N 1) i_inv) (- j_0 1)) (<= 1 j_1) (<= (- N (+ i_inv 1)) j_1) (<= j_1 (- N 1)) (<= 1 j_0) (< (- (- N 1) (+ i_inv 1)) (- j_1 1)) (<= (- N i_inv) j_0) (< (- N i_inv) N) (or (and (= j_0 (- j_1 1)) (= (- (- N 1) i_inv) (- N (+ i_inv 1)))) (and (= (- N i_inv) (- (- N 1) (+ i_inv 1))) (= (- j_0 1) j_1)) (and (= (- (- N 1) i_inv) (- (- N 1) (+ i_inv 1))) (= j_0 j_1))))) (exists ((j_0 Int)(j_1 Int)) (and (< (- N (+ i_inv 1)) N) (<= j_0 (- N 1)) (< (- (- N 1) i_inv) (- j_0 1)) (<= 1 j_1) (<= (- N (+ i_inv 1)) j_1) (<= j_1 (- N 1)) (<= 1 j_0) (<= (- N i_inv) j_0) (< (- N i_inv) N) (or (and (= j_0 (- j_1 1)) (= (- (- N 1) i_inv) (- N (+ i_inv 1)))) (and (= (- N i_inv) (- (- N 1) (+ i_inv 1))) (= (- j_0 1) j_1)) (and (= (- (- N 1) i_inv) (- (- N 1) (+ i_inv 1))) (= j_0 j_1))) (<= (- j_1 1) (- (- N 1) (+ i_inv 1)))))))
      (<= 1 (- N 1))
    )
    false
  )
))

(check-sat)